NAME: ACTUAL_TOURS/amz1595
TYPE: TOUR
COMMENT: RouteID_ab485ad5-abf3-4bbd-a760-f77569cf95b7
DIMENSION: 115
TOUR_SECTION
79
110
28
71
10
114
100
43
42
46
96
34
23
37
30
92
52
104
56
83
24
18
7
4
17
111
25
58
93
54
115
20
31
82
19
50
97
75
36
55
86
74
107
65
40
98
21
3
11
1
72
78
95
22
15
101
99
53
106
90
59
26
62
9
87
2
27
112
77
80
66
85
81
49
109
94
69
45
64
76
70
38
48
103
14
73
57
12
108
39
68
102
29
63
84
89
44
33
61
47
6
5
13
60
32
67
91
8
41
88
16
113
105
51
35
-1
EOF
